
units			real

neigh_modify    once yes  one  22 page 2200  

atom_style	full
bond_style      harmonic
angle_style     harmonic
dihedral_style  harmonic
pair_style      lj/cut/coul/cut 10.0
pair_modify     mix arithmetic

kspace_style    none 
read_data       example.input   


velocity all create 500 3

timestep        1.0

fix             1 all nvt temp 500 500 100.0

special_bonds   amber   
dump 4a all custom 2000 dump.myforce.* id type x y z fx fy fz                            
thermo 2000 
